NAME          RCONMILP
ROWS
 N  00000000
 E  00000001
 E  00000002
 E  00000003
 E  00000004
 L  00000005
 L  00000006
COLUMNS
    INT1      'MARKER'                 'INTORG'
    00000000  00000000 4000000
    00000000  00000001 1
    00000000  00000002 1
    00000000  00000003 1
    00000000  00000004 1
    00000000  00000005 1
    00000000  00000006 1
    INT1      'MARKER'                 'INTEND'
RHS
    RHS1      00000001 1
    RHS1      00000002 1
    RHS1      00000003 1
    RHS1      00000004 1
    RHS1      00000005 1
    RHS1      00000006 1
BOUNDS
 UI BOUND     00000000       1
 LI BOUND     00000000       0
ENDATA
